\ LP format - for model browsing. Use MPS format to capture full model detail.
Minimize
  0 B20(0) + 0 B21(0) + 0 B22(0) + 0 B24(0) + 0 B25(0) + 0 B27(0) + 0 B28(0)
   + 0 B30(0) + 0 B31(0) + 0 B32(0) + 0 B33(0) + 0 B34(0) + 0 B35(0)
   + 0 B37(0) + 0 B39(0) + 0 B42(0) + 0 B44(0) + 0 B45(0) + 0 B46(0)
   + 0 B47(0) + 0 B48(0) + 0 B50(0) + 0 B51(0) + 0 B53(0) + 0 B56(0)
   + 0 B57(0) + 0 B58(0) + 0 B59(0) + 0 B60(0) + 0 B61(0) + 0 B64(0)
   + 0 B66(0) + 0 B68(0) + 0 B69(0) + 0 B70(0) + 0 B71(0) + 0 B72(0)
   + 0 B73(0) + 0 B76(0) + 0 B78(0) + 0 B80(0) + 0 B81(0) + 0 B82(0)
   + 0 B83(0) + 0 B84(0) + 0 B85(0) + 0 B86(0) + 0 B87(0) + 0 B89(0)
   + 0 B91(0) + 0 B92(0) + 0 B93(0) + 0 B94(0) + 0 B95(0) + 0 B96(0)
   + 0 B97(0) + 0 B98(0) + 0 B99(0) + 0 B100(0) + 0 B102(0) + 0 B103(0)
   + 0 B104(0) + 0 B105(0) + 0 B106(0) + 0 B107(0) + 0 B108(0) + 0 B109(0)
   + 0 B110(0) + 0 B111(0) + 0 B112(0) + 0 B113(0) + 0 B114(0) + 0 B116(0)
   + 0 B117(0) + 0 B118(0) + 0 B119(0) + 0 B120(0) + 0 B121(0) + 0 B122(0)
   + 0 B123(0) + 0 B124(0) + 0 B125(0) + 0 B128(0) + 0 B129(0) + 0 B130(0)
   + 0 B131(0) + 0 B132(0) + 0 B133(0) + 0 B134(0) + 0 B135(0) + 0 B136(0)
   + 0 B137(0) + 0 B138(0) + 0 B139(0) + 0 B140(0) + 0 B141(0) + 0 B142(0)
   + 0 B143(0) + 0 B144(0) + 0 B145(0) + 0 B146(0) + 0 B147(0) + 0 B148(0)
   + 0 B149(0) + 0 B150(0) + 0 B151(0) + 0 B152(0) + 0 B153(0) + 0 B154(0)
   + 0 B155(0) + 0 B156(0) + 0 B157(0) + 0 B158(0) + 0 B159(0) + 0 B160(0)
   + 0 B161(0) + 0 B162(0) + 0 B163(0) + I184(1)
Subject To
 c0: B0(11) = 1
 c1: B1(10) + B2(12) = 1
 c2: B3(9) + B4(10) = 1
 c3: B5(12) + B6(10) = 1
 c4: B7(10) + B8(11) = 1
 c5: B9(10) = 1
 c6: B10(11) + B11(11) = 1
 c7: B12(11) = 1
 c8: B13(10) + B14(10) = 1
 c9: B15(11) + B16(11) = 1
 c10: B17(11) = 1
 c11: B18(10) + B19(10) = 1
 c12: - 1e+09 B0(11) + I164(12) <= 0
 c13: - 1e+09 B1(10) + I165(12) <= 0
 c14: - 1e+09 B2(12) + I166(14) <= 0
 c15: - 1e+09 B3(9) + I167(12) <= 0
 c16: - 1e+09 B4(10) + I168(14) <= 0
 c17: - 1e+09 B5(12) + I169(13) <= 0
 c18: - 1e+09 B6(10) + I170(11) <= 0
 c19: - 1e+09 B7(10) + I171(12) <= 0
 c20: - 1e+09 B8(11) + I172(14) <= 0
 c21: - 1e+09 B9(10) + I173(13) <= 0
 c22: - 1e+09 B10(11) + I174(12) <= 0
 c23: - 1e+09 B11(11) + I175(12) <= 0
 c24: - 1e+09 B12(11) + I176(13) <= 0
 c25: - 1e+09 B13(10) + I177(13) <= 0
 c26: - 1e+09 B14(10) + I178(13) <= 0
 c27: - 1e+09 B15(11) + I179(12) <= 0
 c28: - 1e+09 B16(11) + I180(12) <= 0
 c29: - 1e+09 B17(11) + I181(13) <= 0
 c30: - 1e+09 B18(10) + I182(13) <= 0
 c31: - 1e+09 B19(10) + I183(13) <= 0
 c32: - 147 B0(11) - I164(12) + I165(12) + I166(14) >= 0
 c33: - 140 B1(10) - 130 B2(12) - I165(12) - I166(14) + I167(12) + I168(14)
   >= 0
 c34: - 1.00000014e+09 B1(10) - 130 B2(12) - 1e+09 B3(9) - I165(12)
   - I166(14) + I167(12) + I168(14) >= -1.999999989e+09
 c35: - 214 B5(12) - 150 B6(10) - I169(13) - I170(11) + I171(12) + I172(14)
   >= 0
 c36: - 214 B5(12) - 1.00000015e+09 B6(10) - 1e+09 B7(10) - I169(13)
   - I170(11) + I171(12) + I172(14) >= -1.999999988e+09
 c37: - 87 B7(10) - 66 B8(11) - I171(12) - I172(14) + I173(13) >= 0
 c38: - 87 B10(11) - 62 B11(11) - I174(12) - I175(12) + I176(13) >= 0
 c39: - 180 B12(11) - I176(13) + I177(13) + I178(13) >= 0
 c40: - 87 B15(11) - 65 B16(11) - I179(12) - I180(12) + I181(13) >= 0
 c41: - 173 B17(11) - I181(13) + I182(13) + I183(13) >= 0
 c42: - 1e+09 B0(11) - 1e+09 B5(12) - 1e+09 B23(2) + I164(12) - I169(13)
   >= -2.99999977e+09
 c43: - 1e+09 B0(11) - 1e+09 B5(12) + 1e+09 B23(2) - I164(12) + I169(13)
   >= -1.999999842e+09
 c44: - 1e+09 B0(11) - 1e+09 B10(11) - 1e+09 B26(2) + I164(12) - I174(12)
   >= -2.999999899e+09
 c45: - 1e+09 B0(11) - 1e+09 B10(11) + 1e+09 B26(2) - I164(12) + I174(12)
   >= -1.999999839e+09
 c46: - 1e+09 B0(11) - 1e+09 B15(11) - 1e+09 B29(2) + I164(12) - I179(12)
   >= -2.999999897e+09
 c47: - 1e+09 B0(11) - 1e+09 B15(11) + 1e+09 B29(2) - I164(12) + I179(12)
   >= -1.999999841e+09
 c48: - 1e+09 B2(12) - 1e+09 B8(11) - 1e+09 B36(2) + I166(14) - I172(14)
   >= -2.999999921e+09
 c49: - 1e+09 B2(12) - 1e+09 B8(11) + 1e+09 B36(2) - I166(14) + I172(14)
   >= -1.999999858e+09
 c50: - 1e+09 B2(12) - 1e+09 B11(11) - 1e+09 B38(2) + I166(14) - I175(12)
   >= -2.999999923e+09
 c51: - 1e+09 B2(12) - 1e+09 B11(11) + 1e+09 B38(2) - I166(14) + I175(12)
   >= -1.999999858e+09
 c52: - 1e+09 B1(10) - 1e+09 B13(10) - 1e+09 B40(2) + I165(12) - I177(13)
   >= -2.999999797e+09
 c53: - 1e+09 B1(10) - 1e+09 B13(10) + 1e+09 B40(2) - I165(12) + I177(13)
   >= -1.999999845e+09
 c54: - 1e+09 B2(12) - 1e+09 B16(11) - 1e+09 B41(2) + I166(14) - I180(12)
   >= -2.999999921e+09
 c55: - 1e+09 B2(12) - 1e+09 B16(11) + 1e+09 B41(2) - I166(14) + I180(12)
   >= -1.999999856e+09
 c56: - 1e+09 B1(10) - 1e+09 B18(10) - 1e+09 B43(2) + I165(12) - I182(13)
   >= -2.999999843e+09
 c57: - 1e+09 B1(10) - 1e+09 B18(10) + 1e+09 B43(2) - I165(12) + I182(13)
   >= -1.999999848e+09
 c58: - 1e+09 B4(10) - 1e+09 B9(10) - 1e+09 B49(2) + I168(14) - I173(13)
   >= -2.99999981e+09
 c59: - 1e+09 B4(10) - 1e+09 B9(10) + 1e+09 B49(2) - I168(14) + I173(13)
   >= -1.999999827e+09
 c60: - 1e+09 B3(9) - 1e+09 B13(10) - 1e+09 B52(4) + I167(12) - I177(13)
   >= -2.999999794e+09
 c61: - 1e+09 B3(9) - 1e+09 B13(10) + 1e+09 B52(4) - I167(12) + I177(13)
   >= -1.999999837e+09
 c62: - 1e+09 B4(10) - 1e+09 B14(10) - 1e+09 B52(4) + I168(14) - I178(13)
   >= -2.999999887e+09
 c63: - 1e+09 B4(10) - 1e+09 B14(10) + 1e+09 B52(4) - I168(14) + I178(13)
   >= -1.999999825e+09
 c64: - 1e+09 B4(10) - 1e+09 B17(11) - 1e+09 B54(2) + I168(14) - I181(13)
   >= -2.999999814e+09
 c65: - 1e+09 B4(10) - 1e+09 B17(11) + 1e+09 B54(2) - I168(14) + I181(13)
   >= -1.999999826e+09
 c66: - 1e+09 B3(9) - 1e+09 B18(10) - 1e+09 B55(2) + I167(12) - I182(13)
   >= -2.999999842e+09
 c67: - 1e+09 B3(9) - 1e+09 B18(10) + 1e+09 B55(2) - I167(12) + I182(13)
   >= -1.999999837e+09
 c68: - 1e+09 B5(12) - 1e+09 B10(11) - 1e+09 B62(2) + I169(13) - I174(12)
   >= -2.9999999e+09
 c69: - 1e+09 B5(12) - 1e+09 B10(11) + 1e+09 B62(2) - I169(13) + I174(12)
   >= -1.999999773e+09
 c70: - 1e+09 B6(10) - 1e+09 B12(11) - 1e+09 B63(2) + I170(11) - I176(13)
   >= -2.999999807e+09
 c71: - 1e+09 B6(10) - 1e+09 B12(11) + 1e+09 B63(2) - I170(11) + I176(13)
   >= -1.999999836e+09
 c72: - 1e+09 B5(12) - 1e+09 B15(11) - 1e+09 B65(2) + I169(13) - I179(12)
   >= -2.999999899e+09
 c73: - 1e+09 B5(12) - 1e+09 B15(11) + 1e+09 B65(2) - I169(13) + I179(12)
   >= -1.999999772e+09
 c74: - 1e+09 B6(10) - 1e+09 B19(10) - 1e+09 B67(2) + I170(11) - I183(13)
   >= -2.999999854e+09
 c75: - 1e+09 B6(10) - 1e+09 B19(10) + 1e+09 B67(2) - I170(11) + I183(13)
   >= -1.999999838e+09
 c76: - 1e+09 B8(11) - 1e+09 B11(11) - 1e+09 B74(2) + I172(14) - I175(12)
   >= -2.999999925e+09
 c77: - 1e+09 B8(11) - 1e+09 B11(11) + 1e+09 B74(2) - I172(14) + I175(12)
   >= -1.999999922e+09
 c78: - 1e+09 B7(10) - 1e+09 B12(11) - 1e+09 B75(2) + I171(12) - I176(13)
   >= -2.999999806e+09
 c79: - 1e+09 B7(10) - 1e+09 B12(11) + 1e+09 B75(2) - I171(12) + I176(13)
   >= -1.999999899e+09
 c80: - 1e+09 B8(11) - 1e+09 B16(11) - 1e+09 B77(2) + I172(14) - I180(12)
   >= -2.999999924e+09
 c81: - 1e+09 B8(11) - 1e+09 B16(11) + 1e+09 B77(2) - I172(14) + I180(12)
   >= -1.999999921e+09
 c82: - 1e+09 B7(10) - 1e+09 B19(10) - 1e+09 B79(2) + I171(12) - I183(13)
   >= -2.999999851e+09
 c83: - 1e+09 B7(10) - 1e+09 B19(10) + 1e+09 B79(2) - I171(12) + I183(13)
   >= -1.999999901e+09
 c84: - 1e+09 B9(10) - 1e+09 B14(10) - 1e+09 B88(2) + I173(13) - I178(13)
   >= -2.999999889e+09
 c85: - 1e+09 B9(10) - 1e+09 B14(10) + 1e+09 B88(2) - I173(13) + I178(13)
   >= -1.99999981e+09
 c86: - 1e+09 B9(10) - 1e+09 B17(11) - 1e+09 B90(2) + I173(13) - I181(13)
   >= -2.999999814e+09
 c87: - 1e+09 B9(10) - 1e+09 B17(11) + 1e+09 B90(2) - I173(13) + I181(13)
   >= -1.99999981e+09
 c88: - 1e+09 B10(11) - 1e+09 B15(11) - 1e+09 B101(4) + I174(12) - I179(12)
   >= -2.9999999e+09
 c89: - 1e+09 B10(11) - 1e+09 B15(11) + 1e+09 B101(4) - I174(12) + I179(12)
   >= -1.999999903e+09
 c90: - 1e+09 B11(11) - 1e+09 B16(11) - 1e+09 B101(4) + I175(12) - I180(12)
   >= -2.999999923e+09
 c91: - 1e+09 B11(11) - 1e+09 B16(11) + 1e+09 B101(4) - I175(12) + I180(12)
   >= -1.999999926e+09
 c92: - 1e+09 B12(11) - 1e+09 B19(10) - 1e+09 B115(2) + I176(13) - I183(13)
   >= -2.999999852e+09
 c93: - 1e+09 B12(11) - 1e+09 B19(10) + 1e+09 B115(2) - I176(13) + I183(13)
   >= -1.999999808e+09
 c94: - 1e+09 B14(10) - 1e+09 B17(11) - 1e+09 B126(2) + I178(13) - I181(13)
   >= -2.999999815e+09
 c95: - 1e+09 B14(10) - 1e+09 B17(11) + 1e+09 B126(2) - I178(13) + I181(13)
   >= -1.99999989e+09
 c96: - 1e+09 B13(10) - 1e+09 B18(10) - 1e+09 B127(2) + I177(13) - I182(13)
   >= -2.999999841e+09
 c97: - 1e+09 B13(10) - 1e+09 B18(10) + 1e+09 B127(2) - I177(13) + I182(13)
   >= -1.999999795e+09
 c98: I164(12) >= 0
 c99: I164(12) >= 0
 c100: I165(12) >= 0
 c101: I165(12) >= 0
 c102: I166(14) >= 0
 c103: I166(14) >= 0
 c104: I167(12) >= 0
 c105: I167(12) >= 0
 c106: I168(14) >= 0
 c107: I168(14) >= 0
 c108: I169(13) >= 0
 c109: I169(13) >= 0
 c110: I170(11) >= 0
 c111: I170(11) >= 0
 c112: I171(12) >= 0
 c113: I171(12) >= 0
 c114: I172(14) >= 0
 c115: I172(14) >= 0
 c116: I173(13) >= 0
 c117: I173(13) >= 0
 c118: I174(12) >= 0
 c119: I174(12) >= 0
 c120: I175(12) >= 0
 c121: I175(12) >= 0
 c122: I176(13) >= 0
 c123: I176(13) >= 0
 c124: I177(13) >= 0
 c125: I177(13) >= 0
 c126: I178(13) >= 0
 c127: I178(13) >= 0
 c128: I179(12) >= 0
 c129: I179(12) >= 0
 c130: I180(12) >= 0
 c131: I180(12) >= 0
 c132: I181(13) >= 0
 c133: I181(13) >= 0
 c134: I182(13) >= 0
 c135: I182(13) >= 0
 c136: I183(13) >= 0
 c137: I183(13) >= 0
 c138: 147 B0(11) + I164(12) - 1e+09 B185(2) >= -9.99999889e+08
 c139: 147 B0(11) + I164(12) - 1e+09 B185(2) <= 111
 c140: 140 B1(10) + I165(12) - 1e+09 B186(2) >= -9.99999889e+08
 c141: 140 B1(10) + I165(12) - 1e+09 B186(2) <= 111
 c142: 130 B2(12) + I166(14) - 1e+09 B187(2) >= -9.99999889e+08
 c143: 130 B2(12) + I166(14) - 1e+09 B187(2) <= 111
 c144: 150 B3(9) + I167(12) - 1e+09 B188(4) >= -9.99999889e+08
 c145: 150 B3(9) + I167(12) - 1e+09 B188(4) <= 111
 c146: 160 B4(10) + I168(14) - 1e+09 B189(4) >= -9.99999889e+08
 c147: 160 B4(10) + I168(14) - 1e+09 B189(4) <= 111
 c148: 214 B5(12) + I169(13) - 1e+09 B190(2) >= -9.999999e+08
 c149: 214 B5(12) + I169(13) - 1e+09 B190(2) <= 100
 c150: 150 B6(10) + I170(11) - 1e+09 B191(2) >= -9.999999e+08
 c151: 150 B6(10) + I170(11) - 1e+09 B191(2) <= 100
 c152: 87 B7(10) + I171(12) - 1e+09 B192(2) >= -9.999999e+08
 c153: 87 B7(10) + I171(12) - 1e+09 B192(2) <= 100
 c154: 66 B8(11) + I172(14) - 1e+09 B193(2) >= -9.999999e+08
 c155: 66 B8(11) + I172(14) - 1e+09 B193(2) <= 100
 c156: 178 B9(10) + I173(13) - 1e+09 B194(4) >= -9.999999e+08
 c157: 178 B9(10) + I173(13) - 1e+09 B194(4) <= 100
 c158: 87 B10(11) + I174(12) - 1e+09 B195(2) >= -9.99999945e+08
 c159: 87 B10(11) + I174(12) - 1e+09 B195(2) <= 55
 c160: 62 B11(11) + I175(12) - 1e+09 B196(2) >= -9.99999945e+08
 c161: 62 B11(11) + I175(12) - 1e+09 B196(2) <= 55
 c162: 180 B12(11) + I176(13) - 1e+09 B197(2) >= -9.99999945e+08
 c163: 180 B12(11) + I176(13) - 1e+09 B197(2) <= 55
 c164: 190 B13(10) + I177(13) - 1e+09 B198(4) >= -9.99999945e+08
 c165: 190 B13(10) + I177(13) - 1e+09 B198(4) <= 55
 c166: 100 B14(10) + I178(13) - 1e+09 B199(4) >= -9.99999945e+08
 c167: 100 B14(10) + I178(13) - 1e+09 B199(4) <= 55
 c168: 87 B15(11) + I179(12) - 1e+09 B200(2) >= -9.99999966e+08
 c169: 87 B15(11) + I179(12) - 1e+09 B200(2) <= 34
 c170: 65 B16(11) + I180(12) - 1e+09 B201(2) >= -9.99999966e+08
 c171: 65 B16(11) + I180(12) - 1e+09 B201(2) <= 34
 c172: 173 B17(11) + I181(13) - 1e+09 B202(2) >= -9.99999966e+08
 c173: 173 B17(11) + I181(13) - 1e+09 B202(2) <= 34
 c174: 145 B18(10) + I182(13) - 1e+09 B203(4) >= -9.99999966e+08
 c175: 145 B18(10) + I182(13) - 1e+09 B203(4) <= 34
 c176: 136 B19(10) + I183(13) - 1e+09 B204(4) >= -9.99999966e+08
 c177: 136 B19(10) + I183(13) - 1e+09 B204(4) <= 34
 qc0: I184(1) - 39 B188(4) - 49 B189(4) - 78 B194(4) - 135 B198(4)
   - 45 B199(4) - 111 B203(4) - 102 B204(4) + [ - I167(12) * B188(4)
   - I168(14) * B189(4) - I173(13) * B194(4) - I177(13) * B198(4)
   - I178(13) * B199(4) - I182(13) * B203(4) - I183(13) * B204(4) ] >= 0
Bounds
Binaries
 B0(11) B1(10) B2(12) B3(9) B4(10) B5(12) B6(10) B7(10) B8(11) B9(10)
 B10(11) B11(11) B12(11) B13(10) B14(10) B15(11) B16(11) B17(11) B18(10)
 B19(10) B20(0) B21(0) B22(0) B23(2) B24(0) B25(0) B26(2) B27(0) B28(0)
 B29(2) B30(0) B31(0) B32(0) B33(0) B34(0) B35(0) B36(2) B37(0) B38(2)
 B39(0) B40(2) B41(2) B42(0) B43(2) B44(0) B45(0) B46(0) B47(0) B48(0)
 B49(2) B50(0) B51(0) B52(4) B53(0) B54(2) B55(2) B56(0) B57(0) B58(0)
 B59(0) B60(0) B61(0) B62(2) B63(2) B64(0) B65(2) B66(0) B67(2) B68(0)
 B69(0) B70(0) B71(0) B72(0) B73(0) B74(2) B75(2) B76(0) B77(2) B78(0)
 B79(2) B80(0) B81(0) B82(0) B83(0) B84(0) B85(0) B86(0) B87(0) B88(2)
 B89(0) B90(2) B91(0) B92(0) B93(0) B94(0) B95(0) B96(0) B97(0) B98(0)
 B99(0) B100(0) B101(4) B102(0) B103(0) B104(0) B105(0) B106(0) B107(0)
 B108(0) B109(0) B110(0) B111(0) B112(0) B113(0) B114(0) B115(2) B116(0)
 B117(0) B118(0) B119(0) B120(0) B121(0) B122(0) B123(0) B124(0) B125(0)
 B126(2) B127(2) B128(0) B129(0) B130(0) B131(0) B132(0) B133(0) B134(0)
 B135(0) B136(0) B137(0) B138(0) B139(0) B140(0) B141(0) B142(0) B143(0)
 B144(0) B145(0) B146(0) B147(0) B148(0) B149(0) B150(0) B151(0) B152(0)
 B153(0) B154(0) B155(0) B156(0) B157(0) B158(0) B159(0) B160(0) B161(0)
 B162(0) B163(0) B185(2) B186(2) B187(2) B188(4) B189(4) B190(2) B191(2)
 B192(2) B193(2) B194(4) B195(2) B196(2) B197(2) B198(4) B199(4) B200(2)
 B201(2) B202(2) B203(4) B204(4)
Generals
 I164(12) I165(12) I166(14) I167(12) I168(14) I169(13) I170(11) I171(12)
 I172(14) I173(13) I174(12) I175(12) I176(13) I177(13) I178(13) I179(12)
 I180(12) I181(13) I182(13) I183(13) I184(1)
End
